NAME : OMNETRUN
COMMENT : 524.61
TYPE : CVRP
DIMENSION : 21
EDGE_WEIGHT_TYPE : EUC_2D
CAPACITY : 21
NODE_COORD_SECTION
1 0.107093 -0.77924
2 41.1751 -706.929
3 85.413 -1672.63
4 156.776 -2256.2
5 168.794 -4971.36
6 38.5674 -5714.53
7 422.926 -400.552
8 481.849 -768.765
9 442.57 -1142.2
10 282.204 -4454.51
11 619.985 -48.3964
12 664.174 -1786.12
13 729.224 -2584.05
14 613.599 -3563.04
15 587.215 -4070.56
16 709.347 -4622.53
17 644.619 -5429.83
18 877.214 -493.426
19 793.677 -1053.22
20 777.176 -3136.44
21 931.399 -3876.63
DEMAND_SECTION
1 0
2 1
3 1
4 1
5 1
6 1
7 1
8 1
9 1
10 1
11 1
12 1
13 1
14 1
15 1
16 1
17 1
18 1
19 1
20 1
21 1
DEPOT_SECTION
1
-1
EOF
